p cnf 221 927
1 2 3 4 5 6 7 8 9 10 11 12 13 14 15 16 17 18 19 20 21 22 0
23 24 25 26 27 28 29 30 31 32 33 34 35 36 37 38 39 40 41 42 43 44 0
45 46 47 48 49 50 51 52 53 54 55 56 57 58 59 60 61 62 63 64 65 66 67 68 0
69 70 71 72 73 74 75 76 77 78 79 80 81 82 83 84 85 86 87 88 89 90 0
91 92 93 94 95 96 97 98 99 100 101 102 103 104 105 106 107 108 109 110 111 0
112 113 114 115 116 117 118 119 120 121 122 123 124 125 126 127 128 129 130 131 132 133 134 0
156 157 158 159 160 161 162 163 164 165 166 167 168 169 170 171 172 173 174 175 176 177 178 179 0
180 181 182 183 184 185 186 187 188 189 190 191 192 193 194 195 196 197 198 0
199 200 201 202 203 204 205 206 207 208 209 210 211 212 213 214 215 216 217 218 219 220 221 0
-1 -23 0
-1 -45 0
-1 -69 0
-1 -91 0
-1 -112 0
-1 -135 0
-1 -156 0
-1 -180 0
-1 -199 0
-23 -45 0
-23 -69 0
-23 -91 0
-23 -112 0
-23 -135 0
-23 -156 0
-23 -180 0
-23 -199 0
-45 -69 0
-45 -91 0
-45 -112 0
-45 -135 0
-45 -156 0
-45 -180 0
-45 -199 0
-69 -91 0
-69 -112 0
-69 -135 0
-69 -156 0
-69 -180 0
-69 -199 0
-91 -112 0
-91 -135 0
-91 -156 0
-91 -180 0
-91 -199 0
-112 -135 0
-112 -156 0
-112 -180 0
-112 -199 0
-135 -156 0
-135 -180 0
-135 -199 0
-156 -180 0
-156 -199 0
-180 -199 0
-2 -24 0
-2 -46 0
-2 -70 0
-2 -92 0
-2 -113 0
-2 -136 0
-2 -157 0
-2 -181 0
-2 -200 0
-24 -46 0
-24 -70 0
-24 -92 0
-24 -113 0
-24 -136 0
-24 -157 0
-24 -181 0
-24 -200 0
-46 -70 0
-46 -92 0
-46 -113 0
-46 -136 0
-46 -157 0
-46 -181 0
-46 -200 0
-70 -92 0
-70 -113 0
-70 -136 0
-70 -157 0
-70 -181 0
-70 -200 0
-92 -113 0
-92 -136 0
-92 -157 0
-92 -181 0
-92 -200 0
-113 -136 0
-113 -157 0
-113 -181 0
-113 -200 0
-136 -157 0
-136 -181 0
-136 -200 0
-157 -181 0
-157 -200 0
-181 -200 0
-3 -25 0
-3 -47 0
-3 -71 0
-3 -93 0
-3 -114 0
-3 -137 0
-3 -158 0
-3 -201 0
-25 -47 0
-25 -71 0
-25 -93 0
-25 -114 0
-25 -137 0
-25 -158 0
-25 -201 0
-47 -71 0
-47 -93 0
-47 -114 0
-47 -137 0
-47 -158 0
-47 -201 0
-71 -93 0
-71 -114 0
-71 -137 0
-71 -158 0
-71 -201 0
-93 -114 0
-93 -137 0
-93 -158 0
-93 -201 0
-114 -137 0
-114 -158 0
-114 -201 0
-137 -158 0
-137 -201 0
-158 -201 0
-26 -48 0
-26 -72 0
-26 -94 0
-26 -115 0
-26 -138 0
-26 -159 0
-26 -202 0
-48 -72 0
-48 -94 0
-48 -115 0
-48 -138 0
-48 -159 0
-48 -202 0
-72 -94 0
-72 -115 0
-72 -138 0
-72 -159 0
-72 -202 0
-94 -115 0
-94 -138 0
-94 -159 0
-94 -202 0
-115 -138 0
-115 -159 0
-115 -202 0
-138 -159 0
-138 -202 0
-159 -202 0
-4 -27 0
-4 -49 0
-4 -73 0
-4 -95 0
-4 -116 0
-4 -139 0
-4 -160 0
-4 -182 0
-4 -203 0
-27 -49 0
-27 -73 0
-27 -95 0
-27 -116 0
-27 -139 0
-27 -160 0
-27 -182 0
-27 -203 0
-49 -73 0
-49 -95 0
-49 -116 0
-49 -139 0
-49 -160 0
-49 -182 0
-49 -203 0
-73 -95 0
-73 -116 0
-73 -139 0
-73 -160 0
-73 -182 0
-73 -203 0
-95 -116 0
-95 -139 0
-95 -160 0
-95 -182 0
-95 -203 0
-116 -139 0
-116 -160 0
-116 -182 0
-116 -203 0
-139 -160 0
-139 -182 0
-139 -203 0
-160 -182 0
-160 -203 0
-182 -203 0
-5 -50 0
-5 -74 0
-5 -140 0
-5 -161 0
-5 -204 0
-50 -74 0
-50 -140 0
-50 -161 0
-50 -204 0
-74 -140 0
-74 -161 0
-74 -204 0
-140 -161 0
-140 -204 0
-161 -204 0
-6 -28 0
-6 -51 0
-6 -75 0
-6 -96 0
-6 -117 0
-6 -141 0
-6 -162 0
-6 -183 0
-6 -205 0
-28 -51 0
-28 -75 0
-28 -96 0
-28 -117 0
-28 -141 0
-28 -162 0
-28 -183 0
-28 -205 0
-51 -75 0
-51 -96 0
-51 -117 0
-51 -141 0
-51 -162 0
-51 -183 0
-51 -205 0
-75 -96 0
-75 -117 0
-75 -141 0
-75 -162 0
-75 -183 0
-75 -205 0
-96 -117 0
-96 -141 0
-96 -162 0
-96 -183 0
-96 -205 0
-117 -141 0
-117 -162 0
-117 -183 0
-117 -205 0
-141 -162 0
-141 -183 0
-141 -205 0
-162 -183 0
-162 -205 0
-183 -205 0
-7 -29 0
-7 -52 0
-7 -76 0
-7 -97 0
-7 -118 0
-7 -163 0
-7 -184 0
-7 -206 0
-29 -52 0
-29 -76 0
-29 -97 0
-29 -118 0
-29 -163 0
-29 -184 0
-29 -206 0
-52 -76 0
-52 -97 0
-52 -118 0
-52 -163 0
-52 -184 0
-52 -206 0
-76 -97 0
-76 -118 0
-76 -163 0
-76 -184 0
-76 -206 0
-97 -118 0
-97 -163 0
-97 -184 0
-97 -206 0
-118 -163 0
-118 -184 0
-118 -206 0
-163 -184 0
-163 -206 0
-184 -206 0
-8 -30 0
-8 -53 0
-8 -77 0
-8 -98 0
-8 -119 0
-8 -164 0
-8 -185 0
-8 -207 0
-30 -53 0
-30 -77 0
-30 -98 0
-30 -119 0
-30 -164 0
-30 -185 0
-30 -207 0
-53 -77 0
-53 -98 0
-53 -119 0
-53 -164 0
-53 -185 0
-53 -207 0
-77 -98 0
-77 -119 0
-77 -164 0
-77 -185 0
-77 -207 0
-98 -119 0
-98 -164 0
-98 -185 0
-98 -207 0
-119 -164 0
-119 -185 0
-119 -207 0
-164 -185 0
-164 -207 0
-185 -207 0
-31 -54 0
-31 -99 0
-31 -120 0
-31 -142 0
-31 -165 0
-31 -186 0
-31 -208 0
-54 -99 0
-54 -120 0
-54 -142 0
-54 -165 0
-54 -186 0
-54 -208 0
-99 -120 0
-99 -142 0
-99 -165 0
-99 -186 0
-99 -208 0
-120 -142 0
-120 -165 0
-120 -186 0
-120 -208 0
-142 -165 0
-142 -186 0
-142 -208 0
-165 -186 0
-165 -208 0
-186 -208 0
-9 -55 0
-9 -78 0
-9 -121 0
-9 -143 0
-9 -166 0
-9 -187 0
-9 -209 0
-55 -78 0
-55 -121 0
-55 -143 0
-55 -166 0
-55 -187 0
-55 -209 0
-78 -121 0
-78 -143 0
-78 -166 0
-78 -187 0
-78 -209 0
-121 -143 0
-121 -166 0
-121 -187 0
-121 -209 0
-143 -166 0
-143 -187 0
-143 -209 0
-166 -187 0
-166 -209 0
-187 -209 0
-10 -32 0
-10 -56 0
-10 -79 0
-10 -100 0
-10 -122 0
-10 -144 0
-10 -167 0
-10 -188 0
-10 -210 0
-32 -56 0
-32 -79 0
-32 -100 0
-32 -122 0
-32 -144 0
-32 -167 0
-32 -188 0
-32 -210 0
-56 -79 0
-56 -100 0
-56 -122 0
-56 -144 0
-56 -167 0
-56 -188 0
-56 -210 0
-79 -100 0
-79 -122 0
-79 -144 0
-79 -167 0
-79 -188 0
-79 -210 0
-100 -122 0
-100 -144 0
-100 -167 0
-100 -188 0
-100 -210 0
-122 -144 0
-122 -167 0
-122 -188 0
-122 -210 0
-144 -167 0
-144 -188 0
-144 -210 0
-167 -188 0
-167 -210 0
-188 -210 0
-11 -33 0
-11 -57 0
-11 -80 0
-11 -101 0
-11 -123 0
-11 -168 0
-11 -189 0
-11 -211 0
-33 -57 0
-33 -80 0
-33 -101 0
-33 -123 0
-33 -168 0
-33 -189 0
-33 -211 0
-57 -80 0
-57 -101 0
-57 -123 0
-57 -168 0
-57 -189 0
-57 -211 0
-80 -101 0
-80 -123 0
-80 -168 0
-80 -189 0
-80 -211 0
-101 -123 0
-101 -168 0
-101 -189 0
-101 -211 0
-123 -168 0
-123 -189 0
-123 -211 0
-168 -189 0
-168 -211 0
-189 -211 0
-12 -34 0
-12 -58 0
-12 -81 0
-12 -102 0
-12 -124 0
-12 -145 0
-12 -169 0
-12 -212 0
-34 -58 0
-34 -81 0
-34 -102 0
-34 -124 0
-34 -145 0
-34 -169 0
-34 -212 0
-58 -81 0
-58 -102 0
-58 -124 0
-58 -145 0
-58 -169 0
-58 -212 0
-81 -102 0
-81 -124 0
-81 -145 0
-81 -169 0
-81 -212 0
-102 -124 0
-102 -145 0
-102 -169 0
-102 -212 0
-124 -145 0
-124 -169 0
-124 -212 0
-145 -169 0
-145 -212 0
-169 -212 0
-13 -35 0
-13 -59 0
-13 -82 0
-13 -103 0
-13 -125 0
-13 -146 0
-13 -170 0
-13 -190 0
-13 -213 0
-35 -59 0
-35 -82 0
-35 -103 0
-35 -125 0
-35 -146 0
-35 -170 0
-35 -190 0
-35 -213 0
-59 -82 0
-59 -103 0
-59 -125 0
-59 -146 0
-59 -170 0
-59 -190 0
-59 -213 0
-82 -103 0
-82 -125 0
-82 -146 0
-82 -170 0
-82 -190 0
-82 -213 0
-103 -125 0
-103 -146 0
-103 -170 0
-103 -190 0
-103 -213 0
-125 -146 0
-125 -170 0
-125 -190 0
-125 -213 0
-146 -170 0
-146 -190 0
-146 -213 0
-170 -190 0
-170 -213 0
-190 -213 0
-14 -36 0
-14 -60 0
-14 -83 0
-14 -104 0
-14 -126 0
-14 -147 0
-14 -171 0
-14 -191 0
-14 -214 0
-36 -60 0
-36 -83 0
-36 -104 0
-36 -126 0
-36 -147 0
-36 -171 0
-36 -191 0
-36 -214 0
-60 -83 0
-60 -104 0
-60 -126 0
-60 -147 0
-60 -171 0
-60 -191 0
-60 -214 0
-83 -104 0
-83 -126 0
-83 -147 0
-83 -171 0
-83 -191 0
-83 -214 0
-104 -126 0
-104 -147 0
-104 -171 0
-104 -191 0
-104 -214 0
-126 -147 0
-126 -171 0
-126 -191 0
-126 -214 0
-147 -171 0
-147 -191 0
-147 -214 0
-171 -191 0
-171 -214 0
-191 -214 0
-15 -37 0
-15 -61 0
-15 -84 0
-15 -105 0
-15 -127 0
-15 -148 0
-15 -172 0
-15 -215 0
-37 -61 0
-37 -84 0
-37 -105 0
-37 -127 0
-37 -148 0
-37 -172 0
-37 -215 0
-61 -84 0
-61 -105 0
-61 -127 0
-61 -148 0
-61 -172 0
-61 -215 0
-84 -105 0
-84 -127 0
-84 -148 0
-84 -172 0
-84 -215 0
-105 -127 0
-105 -148 0
-105 -172 0
-105 -215 0
-127 -148 0
-127 -172 0
-127 -215 0
-148 -172 0
-148 -215 0
-172 -215 0
-16 -38 0
-16 -62 0
-16 -85 0
-16 -106 0
-16 -128 0
-16 -149 0
-16 -173 0
-16 -192 0
-38 -62 0
-38 -85 0
-38 -106 0
-38 -128 0
-38 -149 0
-38 -173 0
-38 -192 0
-62 -85 0
-62 -106 0
-62 -128 0
-62 -149 0
-62 -173 0
-62 -192 0
-85 -106 0
-85 -128 0
-85 -149 0
-85 -173 0
-85 -192 0
-106 -128 0
-106 -149 0
-106 -173 0
-106 -192 0
-128 -149 0
-128 -173 0
-128 -192 0
-149 -173 0
-149 -192 0
-173 -192 0
-17 -39 0
-17 -63 0
-17 -86 0
-17 -107 0
-17 -129 0
-17 -150 0
-17 -174 0
-17 -193 0
-17 -216 0
-39 -63 0
-39 -86 0
-39 -107 0
-39 -129 0
-39 -150 0
-39 -174 0
-39 -193 0
-39 -216 0
-63 -86 0
-63 -107 0
-63 -129 0
-63 -150 0
-63 -174 0
-63 -193 0
-63 -216 0
-86 -107 0
-86 -129 0
-86 -150 0
-86 -174 0
-86 -193 0
-86 -216 0
-107 -129 0
-107 -150 0
-107 -174 0
-107 -193 0
-107 -216 0
-129 -150 0
-129 -174 0
-129 -193 0
-129 -216 0
-150 -174 0
-150 -193 0
-150 -216 0
-174 -193 0
-174 -216 0
-193 -216 0
-18 -40 0
-18 -64 0
-18 -87 0
-18 -108 0
-18 -130 0
-18 -151 0
-18 -175 0
-18 -194 0
-18 -217 0
-40 -64 0
-40 -87 0
-40 -108 0
-40 -130 0
-40 -151 0
-40 -175 0
-40 -194 0
-40 -217 0
-64 -87 0
-64 -108 0
-64 -130 0
-64 -151 0
-64 -175 0
-64 -194 0
-64 -217 0
-87 -108 0
-87 -130 0
-87 -151 0
-87 -175 0
-87 -194 0
-87 -217 0
-108 -130 0
-108 -151 0
-108 -175 0
-108 -194 0
-108 -217 0
-130 -151 0
-130 -175 0
-130 -194 0
-130 -217 0
-151 -175 0
-151 -194 0
-151 -217 0
-175 -194 0
-175 -217 0
-194 -217 0
-19 -41 0
-19 -65 0
-19 -88 0
-19 -109 0
-19 -131 0
-19 -152 0
-19 -176 0
-19 -195 0
-19 -218 0
-41 -65 0
-41 -88 0
-41 -109 0
-41 -131 0
-41 -152 0
-41 -176 0
-41 -195 0
-41 -218 0
-65 -88 0
-65 -109 0
-65 -131 0
-65 -152 0
-65 -176 0
-65 -195 0
-65 -218 0
-88 -109 0
-88 -131 0
-88 -152 0
-88 -176 0
-88 -195 0
-88 -218 0
-109 -131 0
-109 -152 0
-109 -176 0
-109 -195 0
-109 -218 0
-131 -152 0
-131 -176 0
-131 -195 0
-131 -218 0
-152 -176 0
-152 -195 0
-152 -218 0
-176 -195 0
-176 -218 0
-195 -218 0
-20 -42 0
-20 -66 0
-20 -89 0
-20 -110 0
-20 -132 0
-20 -153 0
-20 -177 0
-20 -196 0
-20 -219 0
-42 -66 0
-42 -89 0
-42 -110 0
-42 -132 0
-42 -153 0
-42 -177 0
-42 -196 0
-42 -219 0
-66 -89 0
-66 -110 0
-66 -132 0
-66 -153 0
-66 -177 0
-66 -196 0
-66 -219 0
-89 -110 0
-89 -132 0
-89 -153 0
-89 -177 0
-89 -196 0
-89 -219 0
-110 -132 0
-110 -153 0
-110 -177 0
-110 -196 0
-110 -219 0
-132 -153 0
-132 -177 0
-132 -196 0
-132 -219 0
-153 -177 0
-153 -196 0
-153 -219 0
-177 -196 0
-177 -219 0
-196 -219 0
-21 -43 0
-21 -67 0
-21 -111 0
-21 -133 0
-21 -154 0
-21 -178 0
-21 -197 0
-21 -220 0
-43 -67 0
-43 -111 0
-43 -133 0
-43 -154 0
-43 -178 0
-43 -197 0
-43 -220 0
-67 -111 0
-67 -133 0
-67 -154 0
-67 -178 0
-67 -197 0
-67 -220 0
-111 -133 0
-111 -154 0
-111 -178 0
-111 -197 0
-111 -220 0
-133 -154 0
-133 -178 0
-133 -197 0
-133 -220 0
-154 -178 0
-154 -197 0
-154 -220 0
-178 -197 0
-178 -220 0
-197 -220 0
-22 -44 0
-22 -68 0
-22 -90 0
-22 -134 0
-22 -155 0
-22 -179 0
-22 -198 0
-22 -221 0
-44 -68 0
-44 -90 0
-44 -134 0
-44 -155 0
-44 -179 0
-44 -198 0
-44 -221 0
-68 -90 0
-68 -134 0
-68 -155 0
-68 -179 0
-68 -198 0
-68 -221 0
-90 -134 0
-90 -155 0
-90 -179 0
-90 -198 0
-90 -221 0
-134 -155 0
-134 -179 0
-134 -198 0
-134 -221 0
-155 -179 0
-155 -198 0
-155 -221 0
-179 -198 0
-179 -221 0
-198 -221 0
